NAME: ../File/prFile/tspFile/tsp_file14.tsp
COMMENT: TSP file generated by Python
TYPE: TSP
DIMENSION: 30
EDGE_WEIGHT_TYPE: EUC_2D
NODE_COORD_SECTION
1 62 7
2 34 99
3 67 21
4 36 59
5 29 66
6 14 44
7 62 76
8 37 70
9 45 89
10 69 33
11 72 55
12 77 91
13 16 7
14 7 61
15 86 54
16 46 71
17 9 5
18 70 55
19 86 89
20 40 10
21 29 66
22 80 77
23 66 68
24 53 17
25 86 36
26 62 80
27 65 98
28 63 55
29 36 7
30 84 87
EOF
